
Gurobi 7.5.1 (linux64, Python) logging started Wed Nov 22 14:14:29 2017

Academic license - for non-commercial use only

Gurobi 7.5.1 (linux64, Python) logging started Wed Nov 22 22:09:46 2017

Academic license - for non-commercial use only
